
Gurobi 11.0.3 (linux64) logging started Sat Nov 23 09:00:49 2024

Set parameter LogFile to value "/home/yihong/Coding/OR_SUC/SUC_results_bigM100000_thread4/case24_ieee_rts_theta0.1_epsilon0.05_gurobi_seed20000_num_gen100_N_WDR50_load_scaling_factor1_proposed_T24quadra_cost.txt"
Set parameter TimeLimit to value 3600
Gurobi Optimizer version 11.0.3 build v11.0.3rc0 (linux64 - "Ubuntu 20.04.6 LTS")

CPU model: AMD EPYC 7532 32-Core Processor, instruction set [SSE2|AVX|AVX2]
Thread count: 64 physical cores, 128 logical processors, using up to 4 threads

Optimize a model with 51892 rows, 29811 columns and 708694 nonzeros
Model fingerprint: 0x87c63093
Model has 2400 quadratic constraints
Variable types: 27411 continuous, 2400 integer (2400 binary)
Coefficient statistics:
  Matrix range     [3e-04, 3e+03]
  QMatrix range    [2e-03, 8e-03]
  QLMatrix range   [2e-02, 6e+01]
  Objective range  [1e+00, 1e+00]
  Bounds range     [1e+00, 1e+00]
  RHS range        [1e+00, 9e+03]
Presolve removed 42081 rows and 12911 columns
Presolve time: 0.23s
Presolved: 9811 rows, 16900 columns, 60759 nonzeros
Presolved model has 2400 quadratic constraint(s)
Variable types: 14500 continuous, 2400 integer (2400 binary)

Root relaxation: objective 3.287299e+04, 7321 iterations, 0.17 seconds (0.25 work units)

    Nodes    |    Current Node    |     Objective Bounds      |     Work
 Expl Unexpl |  Obj  Depth IntInf | Incumbent    BestBd   Gap | It/Node Time

     0     0 32872.9932    0    -          - 32872.9932      -     -    0s
     0     0 330224.335    0  731          - 330224.335      -     -    1s
     0     0 600277.761    0  627          - 600277.761      -     -    1s
     0     0 600320.018    0  332          - 600320.018      -     -    1s
     0     0 600543.120    0  212          - 600543.120      -     -    1s
     0     0 600555.132    0  212          - 600555.132      -     -    1s
     0     0 600555.213    0  212          - 600555.213      -     -    1s
     0     0 600556.170    0  212          - 600556.170      -     -    1s
     0     2 600556.170    0  212          - 600556.170      -     -    3s
    80    98 600658.771   21  190          - 600559.556      -  57.8    5s
H  349   275                    600683.09467 600559.556  0.02%  22.4    6s
*  349   275             119    600683.09467 600559.556  0.02%  22.4    6s

Cutting planes:
  Gomory: 87
  Implied bound: 387
  MIR: 47
  Flow cover: 157
  RLT: 350

Explored 354 nodes (28596 simplex iterations) in 7.15 seconds (9.40 work units)
Thread count was 4 (of 128 available processors)

Solution count 2: 600683 600683 

Optimal solution found (tolerance 1.00e-03)
Warning: max constraint violation (5.0791e-08) exceeds tolerance
Best objective 6.006830946652e+05, best bound 6.005595560225e+05, gap 0.0206%
